c Generated by SAT Solver
p cnf 3002 478
101 102 0
201 202 0
301 302 0
401 402 0
501 502 0
601 602 0
701 702 0
801 802 0
901 902 0
1001 1002 0
1101 1102 0
1201 1202 0
1301 1302 0
1401 1402 0
1501 1502 0
1601 1602 0
1701 1702 0
1801 1802 0
1901 1902 0
2001 2002 0
2101 2102 0
2201 2202 0
2301 2302 0
2401 2402 0
2501 2502 0
2601 2602 0
2701 2702 0
2801 2802 0
2901 2902 0
3001 3002 0
-101 -102 0
-201 -202 0
-301 -302 0
-401 -402 0
-501 -502 0
-601 -602 0
-701 -702 0
-801 -802 0
-901 -902 0
-1001 -1002 0
-1101 -1102 0
-1201 -1202 0
-1301 -1302 0
-1401 -1402 0
-1501 -1502 0
-1601 -1602 0
-1701 -1702 0
-1801 -1802 0
-1901 -1902 0
-2001 -2002 0
-2101 -2102 0
-2201 -2202 0
-2301 -2302 0
-2401 -2402 0
-2501 -2502 0
-2601 -2602 0
-2701 -2702 0
-2801 -2802 0
-2901 -2902 0
-3001 -3002 0
-101 -301 0
-102 -302 0
-101 -601 0
-102 -602 0
-101 -801 0
-102 -802 0
-101 -1001 0
-102 -1002 0
-101 -1301 0
-102 -1302 0
-101 -1501 0
-102 -1502 0
-101 -1601 0
-102 -1602 0
-101 -1701 0
-102 -1702 0
-101 -1801 0
-102 -1802 0
-101 -1901 0
-102 -1902 0
-101 -2601 0
-102 -2602 0
-101 -2701 0
-102 -2702 0
-101 -2901 0
-102 -2902 0
-101 -3001 0
-102 -3002 0
-201 -301 0
-202 -302 0
-201 -501 0
-202 -502 0
-201 -601 0
-202 -602 0
-201 -1501 0
-202 -1502 0
-201 -1601 0
-202 -1602 0
-201 -2001 0
-202 -2002 0
-201 -2201 0
-202 -2202 0
-201 -2301 0
-202 -2302 0
-201 -2501 0
-202 -2502 0
-201 -2601 0
-202 -2602 0
-201 -2701 0
-202 -2702 0
-201 -2801 0
-202 -2802 0
-201 -2901 0
-202 -2902 0
-301 -401 0
-302 -402 0
-301 -501 0
-302 -502 0
-301 -601 0
-302 -602 0
-301 -801 0
-302 -802 0
-301 -1001 0
-302 -1002 0
-301 -1401 0
-302 -1402 0
-301 -1501 0
-302 -1502 0
-301 -1801 0
-302 -1802 0
-301 -2101 0
-302 -2102 0
-301 -2401 0
-302 -2402 0
-301 -2601 0
-302 -2602 0
-401 -701 0
-402 -702 0
-401 -801 0
-402 -802 0
-401 -901 0
-402 -902 0
-401 -1001 0
-402 -1002 0
-401 -1101 0
-402 -1102 0
-401 -1201 0
-402 -1202 0
-401 -1301 0
-402 -1302 0
-401 -1501 0
-402 -1502 0
-401 -1801 0
-402 -1802 0
-401 -2001 0
-402 -2002 0
-401 -2301 0
-402 -2302 0
-401 -2501 0
-402 -2502 0
-401 -2901 0
-402 -2902 0
-501 -601 0
-502 -602 0
-501 -701 0
-502 -702 0
-501 -801 0
-502 -802 0
-501 -901 0
-502 -902 0
-501 -1001 0
-502 -1002 0
-501 -1101 0
-502 -1102 0
-501 -1201 0
-502 -1202 0
-501 -1301 0
-502 -1302 0
-501 -1401 0
-502 -1402 0
-501 -1501 0
-502 -1502 0
-501 -1801 0
-502 -1802 0
-501 -1901 0
-502 -1902 0
-501 -2101 0
-502 -2102 0
-501 -2301 0
-502 -2302 0
-501 -2401 0
-502 -2402 0
-501 -2501 0
-502 -2502 0
-601 -1001 0
-602 -1002 0
-601 -1301 0
-602 -1302 0
-601 -1401 0
-602 -1402 0
-601 -1501 0
-602 -1502 0
-601 -1701 0
-602 -1702 0
-601 -2101 0
-602 -2102 0
-601 -2201 0
-602 -2202 0
-601 -2401 0
-602 -2402 0
-601 -2501 0
-602 -2502 0
-701 -801 0
-702 -802 0
-701 -901 0
-702 -902 0
-701 -1001 0
-702 -1002 0
-701 -1101 0
-702 -1102 0
-701 -1301 0
-702 -1302 0
-701 -1701 0
-702 -1702 0
-701 -1801 0
-702 -1802 0
-701 -1901 0
-702 -1902 0
-701 -2001 0
-702 -2002 0
-701 -2301 0
-702 -2302 0
-701 -2901 0
-702 -2902 0
-801 -901 0
-802 -902 0
-801 -1101 0
-802 -1102 0
-801 -1201 0
-802 -1202 0
-801 -1401 0
-802 -1402 0
-801 -1901 0
-802 -1902 0
-801 -2001 0
-802 -2002 0
-801 -2401 0
-802 -2402 0
-801 -2501 0
-802 -2502 0
-801 -2701 0
-802 -2702 0
-801 -2801 0
-802 -2802 0
-801 -2901 0
-802 -2902 0
-901 -1001 0
-902 -1002 0
-901 -1401 0
-902 -1402 0
-901 -1901 0
-902 -1902 0
-901 -2001 0
-902 -2002 0
-901 -2301 0
-902 -2302 0
-901 -2401 0
-902 -2402 0
-901 -2501 0
-902 -2502 0
-901 -2701 0
-902 -2702 0
-901 -2901 0
-902 -2902 0
-1001 -1301 0
-1002 -1302 0
-1001 -1601 0
-1002 -1602 0
-1001 -1801 0
-1002 -1802 0
-1001 -1901 0
-1002 -1902 0
-1001 -2101 0
-1002 -2102 0
-1001 -2401 0
-1002 -2402 0
-1001 -2701 0
-1002 -2702 0
-1001 -2801 0
-1002 -2802 0
-1101 -1201 0
-1102 -1202 0
-1101 -1801 0
-1102 -1802 0
-1101 -1901 0
-1102 -1902 0
-1101 -2401 0
-1102 -2402 0
-1101 -2501 0
-1102 -2502 0
-1101 -2601 0
-1102 -2602 0
-1101 -2801 0
-1102 -2802 0
-1101 -2901 0
-1102 -2902 0
-1101 -3001 0
-1102 -3002 0
-1201 -1301 0
-1202 -1302 0
-1201 -1401 0
-1202 -1402 0
-1201 -1601 0
-1202 -1602 0
-1201 -1701 0
-1202 -1702 0
-1201 -1801 0
-1202 -1802 0
-1201 -2001 0
-1202 -2002 0
-1201 -2301 0
-1202 -2302 0
-1201 -2401 0
-1202 -2402 0
-1201 -2801 0
-1202 -2802 0
-1301 -1401 0
-1302 -1402 0
-1301 -1501 0
-1302 -1502 0
-1301 -1701 0
-1302 -1702 0
-1301 -1901 0
-1302 -1902 0
-1301 -2001 0
-1302 -2002 0
-1301 -2101 0
-1302 -2102 0
-1301 -2201 0
-1302 -2202 0
-1301 -2601 0
-1302 -2602 0
-1301 -2701 0
-1302 -2702 0
-1301 -3001 0
-1302 -3002 0
-1401 -1601 0
-1402 -1602 0
-1401 -1701 0
-1402 -1702 0
-1401 -1801 0
-1402 -1802 0
-1401 -1901 0
-1402 -1902 0
-1401 -2001 0
-1402 -2002 0
-1401 -2201 0
-1402 -2202 0
-1401 -2301 0
-1402 -2302 0
-1401 -2401 0
-1402 -2402 0
-1401 -2601 0
-1402 -2602 0
-1401 -2801 0
-1402 -2802 0
-1401 -2901 0
-1402 -2902 0
-1501 -1601 0
-1502 -1602 0
-1501 -1701 0
-1502 -1702 0
-1501 -1901 0
-1502 -1902 0
-1501 -2201 0
-1502 -2202 0
-1501 -2401 0
-1502 -2402 0
-1501 -2501 0
-1502 -2502 0
-1501 -2701 0
-1502 -2702 0
-1501 -2801 0
-1502 -2802 0
-1501 -2901 0
-1502 -2902 0
-1601 -1801 0
-1602 -1802 0
-1601 -1901 0
-1602 -1902 0
-1601 -2001 0
-1602 -2002 0
-1601 -2101 0
-1602 -2102 0
-1601 -2201 0
-1602 -2202 0
-1601 -2301 0
-1602 -2302 0
-1601 -2701 0
-1602 -2702 0
-1701 -1901 0
-1702 -1902 0
-1701 -2001 0
-1702 -2002 0
-1701 -2201 0
-1702 -2202 0
-1701 -2301 0
-1702 -2302 0
-1701 -2501 0
-1702 -2502 0
-1701 -2601 0
-1702 -2602 0
-1701 -2701 0
-1702 -2702 0
-1701 -2801 0
-1702 -2802 0
-1701 -2901 0
-1702 -2902 0
-1801 -1901 0
-1802 -1902 0
-1801 -2001 0
-1802 -2002 0
-1801 -2101 0
-1802 -2102 0
-1801 -2401 0
-1802 -2402 0
-1801 -2601 0
-1802 -2602 0
-1801 -2801 0
-1802 -2802 0
-1901 -2101 0
-1902 -2102 0
-1901 -2301 0
-1902 -2302 0
-1901 -2801 0
-1902 -2802 0
-1901 -3001 0
-1902 -3002 0
-2001 -2301 0
-2002 -2302 0
-2001 -2401 0
-2002 -2402 0
-2001 -3001 0
-2002 -3002 0
-2101 -2201 0
-2102 -2202 0
-2101 -2401 0
-2102 -2402 0
-2101 -2501 0
-2102 -2502 0
-2101 -2701 0
-2102 -2702 0
-2101 -3001 0
-2102 -3002 0
-2201 -2301 0
-2202 -2302 0
-2201 -2401 0
-2202 -2402 0
-2201 -2601 0
-2202 -2602 0
-2201 -2901 0
-2202 -2902 0
-2301 -3001 0
-2302 -3002 0
-2401 -2701 0
-2402 -2702 0
-2401 -2901 0
-2402 -2902 0
-2401 -3001 0
-2402 -3002 0
-2501 -2701 0
-2502 -2702 0
-2601 -2701 0
-2602 -2702 0
-2701 -2901 0
-2702 -2902 0
-2901 -3001 0
-2902 -3002 0
